unsat
(error "line 2020 column 17: model is not available")
(error "line 2021 column 17: model is not available")
(error "line 2022 column 18: model is not available")
(error "line 2023 column 18: model is not available")
(error "line 2024 column 18: model is not available")
(error "line 2025 column 18: model is not available")
(error "line 2026 column 18: model is not available")
(error "line 2027 column 18: model is not available")
(error "line 2028 column 18: model is not available")
(error "line 2029 column 18: model is not available")
(error "line 2030 column 18: model is not available")
(error "line 2031 column 18: model is not available")
(error "line 2032 column 17: model is not available")
(error "line 2033 column 18: model is not available")
(error "line 2034 column 18: model is not available")
(error "line 2035 column 18: model is not available")
(error "line 2036 column 18: model is not available")
(error "line 2037 column 18: model is not available")
(error "line 2038 column 18: model is not available")
(error "line 2039 column 18: model is not available")
(error "line 2040 column 18: model is not available")
(error "line 2041 column 18: model is not available")
(error "line 2042 column 18: model is not available")
(error "line 2043 column 17: model is not available")
(error "line 2044 column 18: model is not available")
(error "line 2045 column 18: model is not available")
(error "line 2046 column 18: model is not available")
(error "line 2047 column 18: model is not available")
(error "line 2048 column 18: model is not available")
(error "line 2049 column 18: model is not available")
(error "line 2050 column 18: model is not available")
(error "line 2051 column 18: model is not available")
(error "line 2052 column 18: model is not available")
(error "line 2053 column 18: model is not available")
(error "line 2054 column 17: model is not available")
(error "line 2055 column 18: model is not available")
(error "line 2056 column 18: model is not available")
(error "line 2057 column 18: model is not available")
(error "line 2058 column 18: model is not available")
(error "line 2059 column 18: model is not available")
(error "line 2060 column 17: model is not available")
(error "line 2061 column 17: model is not available")
(error "line 2062 column 17: model is not available")
(error "line 2063 column 17: model is not available")
(error "line 2064 column 17: model is not available")
(error "line 2065 column 38: model is not available")
(error "line 2066 column 45: model is not available")
(error "line 2067 column 38: model is not available")
(error "line 2068 column 45: model is not available")
(error "line 2069 column 46: model is not available")
(error "line 2070 column 53: model is not available")
(error "line 2071 column 40: model is not available")
(error "line 2072 column 47: model is not available")
(error "line 2073 column 38: model is not available")
(error "line 2074 column 45: model is not available")
(error "line 2075 column 38: model is not available")
(error "line 2076 column 45: model is not available")
(error "line 2077 column 41: model is not available")
(error "line 2078 column 48: model is not available")
(error "line 2079 column 42: model is not available")
(error "line 2080 column 42: model is not available")
(error "line 2081 column 49: model is not available")
(error "line 2082 column 41: model is not available")
(error "line 2083 column 48: model is not available")
(error "line 2084 column 41: model is not available")
(error "line 2085 column 48: model is not available")
(error "line 2086 column 41: model is not available")
(error "line 2087 column 41: model is not available")
(error "line 2088 column 48: model is not available")
(error "line 2089 column 41: model is not available")
(error "line 2090 column 48: model is not available")
(error "line 2091 column 41: model is not available")
(error "line 2092 column 41: model is not available")
(error "line 2093 column 48: model is not available")
(error "line 2094 column 41: model is not available")
(error "line 2095 column 48: model is not available")
(error "line 2096 column 37: model is not available")
(error "line 2097 column 44: model is not available")
(error "line 2098 column 42: model is not available")
(error "line 2099 column 42: model is not available")
(error "line 2100 column 42: model is not available")
(error "line 2101 column 42: model is not available")
(error "line 2102 column 42: model is not available")
(error "line 2103 column 38: model is not available")
(error "line 2104 column 38: model is not available")
(error "line 2105 column 38: model is not available")
(error "line 2106 column 38: model is not available")
(error "line 2107 column 38: model is not available")
(error "line 2108 column 38: model is not available")
(error "line 2109 column 38: model is not available")
(error "line 2110 column 38: model is not available")
(error "line 2111 column 38: model is not available")
(error "line 2112 column 41: model is not available")
(error "line 2113 column 48: model is not available")
(error "line 2114 column 41: model is not available")
(error "line 2115 column 48: model is not available")
(error "line 2116 column 41: model is not available")
(error "line 2117 column 48: model is not available")
(error "line 2118 column 41: model is not available")
(error "line 2119 column 48: model is not available")
(error "line 2120 column 41: model is not available")
(error "line 2121 column 48: model is not available")
(error "line 2122 column 41: model is not available")
(error "line 2123 column 48: model is not available")
(error "line 2124 column 41: model is not available")
(error "line 2125 column 48: model is not available")
(error "line 2126 column 41: model is not available")
(error "line 2127 column 48: model is not available")
(error "line 2128 column 41: model is not available")
(error "line 2129 column 48: model is not available")
(error "line 2130 column 53: model is not available")
(error "line 2131 column 53: model is not available")
(error "line 2132 column 53: model is not available")
(error "line 2133 column 53: model is not available")
(error "line 2134 column 38: model is not available")
(error "line 2135 column 38: model is not available")
(error "line 2136 column 38: model is not available")
(error "line 2137 column 38: model is not available")
(error "line 2138 column 36: model is not available")
(error "line 2139 column 36: model is not available")
(error "line 2140 column 36: model is not available")
(error "line 2141 column 36: model is not available")
(error "line 2142 column 29: model is not available")
(error "line 2143 column 31: model is not available")
(error "line 2144 column 38: model is not available")
(error "line 2145 column 31: model is not available")
(error "line 2146 column 38: model is not available")
(error "line 2147 column 31: model is not available")
(error "line 2148 column 38: model is not available")
(error "line 2149 column 31: model is not available")
(error "line 2150 column 38: model is not available")
(error "line 2151 column 31: model is not available")
(error "line 2152 column 38: model is not available")
(error "line 2153 column 53: model is not available")
(error "line 2154 column 52: model is not available")
(error "line 2155 column 53: model is not available")
(error "line 2156 column 53: model is not available")
(error "line 2157 column 52: model is not available")
(error "line 2158 column 53: model is not available")
(error "line 2159 column 53: model is not available")
(error "line 2160 column 53: model is not available")
(error "line 2161 column 52: model is not available")
(error "line 2162 column 52: model is not available")
(error "line 2163 column 51: model is not available")
(error "line 2164 column 51: model is not available")
(error "line 2165 column 51: model is not available")
(error "line 2166 column 51: model is not available")
(error "line 2167 column 51: model is not available")
(error "line 2168 column 50: model is not available")
(error "line 2169 column 50: model is not available")
(error "line 2170 column 50: model is not available")
(error "line 2171 column 50: model is not available")
(error "line 2172 column 52: model is not available")
(error "line 2173 column 51: model is not available")
(error "line 2174 column 51: model is not available")
(error "line 2175 column 51: model is not available")
(error "line 2176 column 51: model is not available")
(error "line 2177 column 51: model is not available")
(error "line 2178 column 50: model is not available")
(error "line 2179 column 50: model is not available")
(error "line 2180 column 50: model is not available")
(error "line 2181 column 50: model is not available")
(error "line 2182 column 52: model is not available")
(error "line 2183 column 51: model is not available")
(error "line 2184 column 51: model is not available")
(error "line 2185 column 51: model is not available")
(error "line 2186 column 51: model is not available")
(error "line 2187 column 51: model is not available")
(error "line 2188 column 50: model is not available")
(error "line 2189 column 50: model is not available")
(error "line 2190 column 51: model is not available")
(error "line 2191 column 51: model is not available")
(error "line 2192 column 52: model is not available")
(error "line 2193 column 51: model is not available")
(error "line 2194 column 51: model is not available")
(error "line 2195 column 51: model is not available")
(error "line 2196 column 51: model is not available")
(error "line 2197 column 51: model is not available")
(error "line 2198 column 51: model is not available")
(error "line 2199 column 51: model is not available")
(error "line 2200 column 51: model is not available")
(error "line 2201 column 51: model is not available")
(error "line 2202 column 56: model is not available")
(error "line 2203 column 56: model is not available")
(error "line 2204 column 56: model is not available")
(error "line 2205 column 56: model is not available")
(error "line 2206 column 55: model is not available")
(error "line 2207 column 55: model is not available")
(error "line 2208 column 55: model is not available")
(error "line 2209 column 55: model is not available")
(error "line 2210 column 55: model is not available")
(error "line 2211 column 55: model is not available")
(error "line 2212 column 55: model is not available")
(error "line 2213 column 55: model is not available")
(error "line 2214 column 55: model is not available")
(error "line 2215 column 55: model is not available")
(error "line 2216 column 55: model is not available")
(error "line 2217 column 55: model is not available")
(error "line 2218 column 55: model is not available")
(error "line 2219 column 55: model is not available")
(error "line 2220 column 55: model is not available")
(error "line 2221 column 55: model is not available")
(error "line 2222 column 55: model is not available")
(error "line 2223 column 55: model is not available")
(error "line 2224 column 55: model is not available")
(error "line 2225 column 55: model is not available")
(error "line 2226 column 36: model is not available")
(error "line 2227 column 36: model is not available")
(error "line 2228 column 36: model is not available")
(error "line 2229 column 36: model is not available")
(error "line 2230 column 36: model is not available")
(error "line 2231 column 46: model is not available")
(error "line 2232 column 46: model is not available")
(error "line 2233 column 46: model is not available")
(error "line 2234 column 46: model is not available")
(error "line 2235 column 46: model is not available")
(error "line 2236 column 46: model is not available")
(error "line 2237 column 46: model is not available")
(error "line 2238 column 46: model is not available")
(error "line 2239 column 54: model is not available")
(error "line 2240 column 54: model is not available")
(error "line 2241 column 54: model is not available")
(error "line 2242 column 54: model is not available")
(error "line 2243 column 54: model is not available")
(error "line 2244 column 54: model is not available")
(error "line 2245 column 54: model is not available")
(error "line 2246 column 54: model is not available")
(error "line 2247 column 54: model is not available")
(error "line 2248 column 54: model is not available")
(error "line 2249 column 54: model is not available")
(error "line 2250 column 54: model is not available")
(error "line 2251 column 40: model is not available")
(error "line 2252 column 40: model is not available")
(error "line 2253 column 40: model is not available")
(error "line 2254 column 40: model is not available")
(error "line 2255 column 40: model is not available")
(error "line 2256 column 40: model is not available")
(error "line 2257 column 40: model is not available")
(error "line 2258 column 40: model is not available")
(error "line 2259 column 41: model is not available")
(error "line 2260 column 41: model is not available")
(error "line 2261 column 41: model is not available")
(error "line 2262 column 41: model is not available")
(error "line 2263 column 41: model is not available")
(error "line 2264 column 41: model is not available")
(error "line 2265 column 41: model is not available")
(error "line 2266 column 41: model is not available")
(error "line 2267 column 50: model is not available")
(error "line 2268 column 50: model is not available")
(error "line 2269 column 50: model is not available")
(error "line 2270 column 50: model is not available")
(error "line 2271 column 50: model is not available")
(error "line 2272 column 50: model is not available")
(error "line 2273 column 50: model is not available")
(error "line 2274 column 50: model is not available")
(error "line 2275 column 43: model is not available")
(error "line 2276 column 43: model is not available")
(error "line 2277 column 43: model is not available")
(error "line 2278 column 43: model is not available")
(error "line 2279 column 43: model is not available")
(error "line 2280 column 43: model is not available")
(error "line 2281 column 43: model is not available")
(error "line 2282 column 43: model is not available")
(error "line 2283 column 18: model is not available")
(error "line 2284 column 25: model is not available")
(error "line 2285 column 19: model is not available")
(error "line 2286 column 26: model is not available")
(error "line 2287 column 18: model is not available")
(error "line 2288 column 25: model is not available")
(error "line 2289 column 18: model is not available")
(error "line 2290 column 25: model is not available")
(error "line 2291 column 18: model is not available")
(error "line 2292 column 25: model is not available")
(error "line 2293 column 18: model is not available")
(error "line 2294 column 25: model is not available")
(error "line 2295 column 18: model is not available")
(error "line 2296 column 25: model is not available")
(error "line 2297 column 18: model is not available")
(error "line 2298 column 25: model is not available")
(error "line 2299 column 18: model is not available")
(error "line 2300 column 25: model is not available")
(error "line 2301 column 18: model is not available")
(error "line 2302 column 25: model is not available")
(error "line 2303 column 30: model is not available")
(error "line 2304 column 30: model is not available")
(error "line 2305 column 30: model is not available")
(error "line 2306 column 30: model is not available")
(error "line 2307 column 36: model is not available")
(error "line 2308 column 36: model is not available")
(error "line 2309 column 36: model is not available")
(error "line 2310 column 36: model is not available")
(error "line 2311 column 36: model is not available")
(error "line 2312 column 36: model is not available")
(error "line 2313 column 36: model is not available")
(error "line 2314 column 36: model is not available")
(error "line 2315 column 31: model is not available")
(error "line 2316 column 31: model is not available")
(error "line 2317 column 31: model is not available")
(error "line 2318 column 31: model is not available")
(error "line 2319 column 31: model is not available")
(error "line 2320 column 31: model is not available")
(error "line 2321 column 31: model is not available")
(error "line 2322 column 31: model is not available")
(error "line 2323 column 31: model is not available")
(error "line 2324 column 31: model is not available")
(error "line 2325 column 31: model is not available")
(error "line 2326 column 31: model is not available")
(error "line 2327 column 30: model is not available")
(error "line 2328 column 30: model is not available")
(error "line 2329 column 30: model is not available")
(error "line 2330 column 30: model is not available")
(error "line 2332 column 10: model is not available")
(:added-eqs                      54
 :arith-bound-propagations-cheap 18
 :arith-bound-propagations-lp    82
 :arith-conflicts                3
 :arith-lower                    67
 :arith-make-feasible            24
 :arith-max-columns              145
 :arith-max-rows                 109
 :arith-propagations             18
 :arith-upper                    40
 :array-ax1                      4
 :binary-propagations            187
 :bv-bit2core                    384
 :bv-diseqs                      2
 :conflicts                      13
 :decisions                      37
 :del-clause                     435
 :eliminated-applications        16
 :eliminated-vars                7
 :max-memory                     4.42
 :memory                         3.23
 :minimized-lits                 3
 :mk-bool-var                    820
 :mk-clause                      576
 :num-allocs                     1233183
 :num-checks                     1
 :propagations                   295
 :rlimit-count                   74450
 :time                           0.01
 :total-time                     0.02)

real	0m0.025s
user	0m0.024s
sys	0m0.001s
State: RE Run_time: 0.02736830711364746